coords = array2d(1..36, 1..2, [99, 405, 895, 432, 955, 303, 626, 296, 680, 754,
    359, 336, 266, 725, 848, 557, 892, 247, 874, 466, 224, 772, 541,
    694, 311, 526, 482, 672, 229, 824, 746, 532, 487, 297, 375, 833,
    366, 543, 473, 551, 926, 234, 757, 65, 400, 391, 671, 463, 62,
    574, 899, 111, 108, 941, 367, 991, 127, 63, 717, 567, 729, 369,
    235, 754, 930, 718, 860, 933, 732, 325, 226, 556]);

n = 36;

